



































































































21 83 88 36 7 41 34 
33 16 32 20 60 81 19 45 
70 85 55 49 101 40 109 113 
57 95 13 99 44 102 17 59 
11 9 24 94 84 74 86 
27 110 92 51 75 46 0 66 
80 112 65 105 4 14 62 35 78 
73 22 23 98 61 111 42 50 
82 58 1 76 18 67 64 63 
89 69 91 114 56 106 77 
100 2 5 48 97 12 104 52 
96 38 108 3 29 103 93 28 
79 26 90 25 6 47 71 68 43 
15 8 31 37 107 10 72 
54 53 39 87 30 
